c WARNING: for repeatability, setting FPU to use double precision
d VARIABLES            27129        
d CONSTRAINTS          89130        
c ============================[ Problem Statistics ]=============================
c |                                                                             |
c |  Number of variables:         27129                                         |
c |  Number of clauses:           89130                                         |
c |  Parse time:                   0.01 s                                       |
c |                                                                             |
c ============================[ Search Statistics ]==============================
c | Conflicts |          ORIGINAL         |          LEARNT          | Progress |
c |           |    Vars  Clauses Literals |    Limit  Clauses Lit/Cl |          |
c ===============================================================================
c |       100 |   16491    60646   152840 |    22236      100     94 | 39.213 % |
c |       250 |   16491    60646   152840 |    24460      250     79 | 39.213 % |
c |       475 |   16491    60646   152840 |    26906      475     79 | 39.213 % |
c |       812 |   16491    60646   152840 |    29597      812     80 | 39.213 % |
c |      1318 |   16491    60646   152840 |    32556     1318     75 | 39.213 % |
c |      2077 |   16491    60646   152840 |    35812     2077     72 | 39.213 % |
c |      3216 |   16491    60646   152840 |    39393     3216     81 | 39.213 % |
c |      4924 |   16491    60646   152840 |    43333     4924     81 | 39.213 % |
c |      7486 |   16491    60646   152840 |    47666     7486     82 | 39.213 % |
c |     11330 |   16491    60646   152840 |    52433    11330     79 | 39.213 % |
c |     17096 |   16491    60646   152840 |    57676    17096     79 | 39.213 % |
c |     25745 |   16491    60646   152840 |    63444    25745     76 | 39.213 % |
c |     38719 |   16491    60646   152840 |    69788    38719     73 | 39.213 % |
c |     58180 |   16491    60646   152840 |    76767    58180     67 | 39.213 % |
c ===============================================================================
c restarts              : 189
c conflicts             : 60641          (4876 /sec)
c decisions             : 105270         (0.00 % random) (8464 /sec)
c propagations          : 46857835       (3767683 /sec)
c conflict literals     : 4013695        (56.21 % deleted)
d RESTARTS             189
d FAILURES             60641        
d NODES                105270       
d BACKTRACKS           105270       
d PROPAGATIONS         46857835     
d NOGOODSIZE           66.19 
d MEMORY               32.00 
d TIME                 12.4368 

s UNSATISFIABLE
